p edge 28 168
e 1 3
e 1 4
e 1 12
e 1 13
e 1 19
e 1 22
e 2 3
e 2 6
e 2 16
e 2 21
e 2 22
e 2 24
e 3 6
e 3 6
e 3 11
e 3 18
e 3 22
e 3 22
e 4 10
e 4 12
e 4 17
e 4 19
e 4 20
e 4 23
e 5 4
e 5 7
e 5 12
e 5 24
e 5 25
e 5 27
e 6 7
e 6 10
e 6 13
e 6 15
e 6 18
e 6 23
e 7 2
e 7 6
e 7 9
e 7 14
e 7 20
e 7 22
e 8 1
e 8 7
e 8 13
e 8 13
e 8 18
e 8 23
e 9 4
e 9 4
e 9 7
e 9 13
e 9 19
e 9 26
e 10 5
e 10 9
e 10 15
e 10 18
e 10 20
e 10 22
e 11 6
e 11 15
e 11 15
e 11 16
e 11 17
e 11 21
e 12 1
e 12 18
e 12 23
e 12 23
e 12 24
e 12 26
e 13 2
e 13 10
e 13 11
e 13 11
e 13 14
e 13 27
e 14 2
e 14 5
e 14 10
e 14 13
e 14 18
e 14 20
e 15 3
e 15 4
e 15 6
e 15 8
e 15 25
e 15 26
e 16 6
e 16 9
e 16 13
e 16 14
e 16 20
e 16 26
e 17 3
e 17 7
e 17 8
e 17 10
e 17 10
e 17 15
e 18 10
e 18 14
e 18 16
e 18 25
e 18 26
e 18 28
e 19 12
e 19 15
e 19 15
e 19 16
e 19 23
e 19 27
e 20 2
e 20 7
e 20 10
e 20 12
e 20 18
e 20 21
e 21 3
e 21 11
e 21 15
e 21 18
e 21 19
e 21 25
e 22 1
e 22 1
e 22 8
e 22 15
e 22 18
e 22 25
e 23 12
e 23 18
e 23 18
e 23 20
e 23 21
e 23 24
e 24 4
e 24 11
e 24 13
e 24 17
e 24 18
e 24 18
e 25 3
e 25 6
e 25 13
e 25 13
e 25 26
e 25 27
e 26 6
e 26 7
e 26 9
e 26 16
e 26 23
e 26 28
e 27 2
e 27 3
e 27 9
e 27 11
e 27 14
e 27 28
e 28 12
e 28 15
e 28 19
e 28 20
e 28 20
e 28 23
